10 965
525 7 476 7 388 7 247 9 76 11 911 15 755 21 601 35
525 7 476 7 388 7 247 9 76 11 911 15 755 21 601 35
525 7 482 7 394 7 212 9 29 11 822 15 623 21
535 8 495 8 401 9 236 10 73 14 906 18 803 22
535 8 494 8 291 10
535 8 494 8 291 10
535 8 494 8 291 10
525 7 482 7 394 7 212 9 29 11 822 15 623 21
525 7 482 7 365 7 212 9 29 11 823 18
525 7 446 7 267 7 66 9 891 11 731 18
